WARNING: for repeatability, setting FPU to use double precision
============================[ Problem Statistics ]=============================
|                                                                             |
|  Number of variables:           100                                         |
|  Number of clauses:             449                                         |
|  Parse time:                   0.00 s                                       |
|  Eliminated clauses:           0.00 Mb                                      |
|  Simplification time:          0.00 s                                       |
|                                                                             |
============================[ Search Statistics ]==============================
| Conflicts |          ORIGINAL         |          LEARNT          | Progress |
|           |    Vars  Clauses Literals |    Limit  Clauses Lit/Cl |          |
===============================================================================
|       100 |      97      447     1370 |      163      100      6 |  0.021 % |
===============================================================================
restarts              : 2
conflicts             : 129            (61080 /sec)
decisions             : 169            (0.00 % random) (80019 /sec)
propagations          : 3197           (1513731 /sec)
conflict literals     : 744            (21.19 % deleted)
Memory used           : 13.00 MB
CPU time              : 0.002112 s

SATISFIABLE
